&PROJWFC
    prefix = 'c'
    outdir = './tmp'
  degauss=0.001
  DeltaE=0.01,
  filpdos='c'
  filproj='c'
/
    