&PROJWFC
    prefix = 'c'
    outdir = './tmp'
  degauss=0.001
  DeltaE=0.01,
  filpdos='c-k-resolved'
  filproj='c-k-resolved'
  kresolveddos=.true.
/
    