&PROJWFC
  prefix = 'nso'
  outdir = './tmp'
  degauss = 0.003
  DeltaE = 0.04
  filproj = 'nso'
  Emin = -10
/
