&PROJWFC
  prefix = 'nnso'
  outdir = './tmp'
  degauss = 0.003
  DeltaE = 0.04
  filproj = 'nnso'
  Emin = -10
/
