&PROJWFC
  prefix = 'csp'
  outdir = './tmp'
  degauss = 0.003
  DeltaE = 0.04
  filproj = 'csp'
  diag_basis = .true.
  Emin = -10
/
