&PROJWFC
    prefix = 'csp'
    outdir = './tmp'
  degauss=0.001
  DeltaE=0.01,
  filpdos='csp-k-resolved'
  filproj='csp-k-resolved'
  kresolveddos=.true.
/
    