&CONTROL
  calculation = 'nscf'
  outdir = './tmp/'
  prefix = 'nso'
  pseudo_dir = '../pseudo'
  verbosity = 'high'
/
&SYSTEM
  degauss =   1.4699723600d-03
  ecutrho =   500
  ecutwfc =   120
  ibrav = 0
  nat = 3
  ntyp = 2
  occupations = 'smearing'
  smearing = 'cold'
  starting_magnetization(1) =   2.7777777778d-01
  starting_magnetization(2) =   1.0000000000d-01
  angle1(1)=0
  angle2(1)=0
  lspinorb = .true.
  noncolin = .true.
  noinv=.true.
  nosym=.true.
/
&ELECTRONS
  conv_thr =   1.0000000000d-6
  electron_maxstep = 800
  mixing_beta =   4.0000000000d-01
/
ATOMIC_SPECIES
Ni     58.6934 Ni.upf
I      126.90447 I.upf
ATOMIC_POSITIONS crystal
Ni           0.0000000000       0.0000000000       0.5000000000
I            0.3333333330       0.6666666670       0.5615401010
I            0.6666666670       0.3333333330       0.4384598990
K_POINTS crystal_b
4
0.0000 0.0000 0.0000 20 ! Gamma
0.3333 0.3333 0.0000 20 ! K
0.5000 0.0000 0.0000 20 ! M
0.0000 0.0000 0.0000 0  ! Gamma
CELL_PARAMETERS angstrom
      3.8949985504       0.0000000000       0.0000000000
     -1.9474992752       3.3731676924       0.0000000000
      0.0000000000       0.0000000000      24.4775333405
