&PROJWFC
    prefix = 'nso'
    outdir = './tmp'
  degauss=0.001
  DeltaE=0.01,
  filpdos='nso'
  filproj='nso'
/
    