&PROJWFC
  prefix = 'c'
  outdir = './tmp'
  degauss = 0.003
  DeltaE = 0.04
  filproj = 'c'
  kresolveddos = .true.
  diag_basis = .true.
  Emin = -10
/
